(set-logic QF_LRA)
(declare-fun x0 () Real)
(declare-fun x1 () Real)
(declare-fun x2 () Real)
(declare-fun x3 () Real)
(declare-fun x4 () Real)
(declare-fun x5 () Real)
(declare-fun x6 () Real)
(declare-fun x7 () Real)
(declare-fun x8 () Real)
(declare-fun x9 () Real)
(declare-fun A0 () Bool)
(declare-fun A1 () Bool)
(declare-fun A2 () Bool)
(declare-fun A5 () Bool)
(declare-fun A6 () Bool)
(declare-fun A8 () Bool)
(declare-fun A9 () Bool)
(assert (let ((.def_0 (not A9))) (let ((.def_1 (not A1))) (let ((.def_2 (or .def_1 .def_0))) (let ((.def_3 (* (- (/ 522922424785389 1125899906842624)) x4))) (let ((.def_4 (* (- (/ 3352717302751315 4503599627370496)) x3))) (let ((.def_5 (* (/ 293949394069781 562949953421312) x6))) (let ((.def_6 (* (/ 3060938161839285 4503599627370496) x5))) (let ((.def_7 (* (- (/ 3968523943684575 4503599627370496)) x2))) (let ((.def_8 (* (/ 2915076416719047 4503599627370496) x7))) (let ((.def_9 (* (- (/ 1962863007275465 2251799813685248)) x8))) (let ((.def_10 (* (/ 373814981412923 2251799813685248) x1))) (let ((.def_11 (* (- (/ 3854959143139595 4503599627370496)) x9))) (let ((.def_12 (* (- (/ 178925222170545 1125899906842624)) x0))) (let ((.def_13 (+ .def_12 .def_11 .def_10 .def_9 .def_8 .def_7 .def_6 .def_5 .def_4 .def_3))) (let ((.def_14 (< .def_13 (- (/ 294085464352793 35184372088832))))) (let ((.def_15 (not .def_14))) (let ((.def_16 (not A6))) (let ((.def_17 (and .def_16 .def_15))) (let ((.def_18 (or .def_17 .def_2))) (let ((.def_19 (not .def_18))) (let ((.def_20 (* (/ 66401148210393 281474976710656) x0))) (let ((.def_21 (* (/ 1576619117544565 2251799813685248) x4))) (let ((.def_22 (* (- (/ 948509257490857 4503599627370496)) x3))) (let ((.def_23 (* (- (/ 711745808458129 2251799813685248)) x2))) (let ((.def_24 (* (- (/ 122455141463835 2251799813685248)) x8))) (let ((.def_25 (* (/ 391445117581049 4503599627370496) x9))) (let ((.def_26 (* (/ 979522588161295 4503599627370496) x7))) (let ((.def_27 (+ .def_26 .def_25 .def_24 .def_23 .def_22 .def_21 .def_20))) (let ((.def_28 (< .def_27 (- (/ 1964057203038031 281474976710656))))) (let ((.def_29 (not .def_28))) (let ((.def_30 (or .def_29 A5))) (let ((.def_31 (not .def_30))) (let ((.def_32 (not A5))) (let ((.def_33 (= .def_1 .def_32))) (let ((.def_34 (or .def_33 .def_31))) (let ((.def_35 (not .def_34))) (let ((.def_36 (and .def_35 .def_19))) (let ((.def_37 (not .def_36))) (let ((.def_38 (not A2))) (let ((.def_39 (and A1 .def_38))) (let ((.def_40 (* (/ 54032682441313 1125899906842624) x2))) (let ((.def_41 (* (/ 1180035657821343 2251799813685248) x3))) (let ((.def_42 (* (- (/ 2109898110386045 4503599627370496)) x4))) (let ((.def_43 (* (- (/ 3360879720877595 4503599627370496)) x9))) (let ((.def_44 (+ .def_43 .def_42 .def_41 .def_40))) (let ((.def_45 (< .def_44 (- (/ 979862451641123 281474976710656))))) (let ((.def_46 (not .def_45))) (let ((.def_47 (* (/ 1089513099514201 2251799813685248) x0))) (let ((.def_48 (< .def_47 (/ 4271198220813151 4503599627370496)))) (let ((.def_49 (or .def_48 .def_46))) (let ((.def_50 (or .def_49 .def_39))) (let ((.def_51 (* (/ 4106065444610793 4503599627370496) x7))) (let ((.def_52 (* (- (/ 3301376412079673 4503599627370496)) x2))) (let ((.def_53 (* (/ 1864042647769 140737488355328) x6))) (let ((.def_54 (* (- (/ 998267568175323 2251799813685248)) x9))) (let ((.def_55 (+ .def_54 .def_53 .def_52 .def_51))) (let ((.def_56 (< .def_55 (/ 209447949186133 1125899906842624)))) (let ((.def_57 (or A1 .def_56))) (let ((.def_58 (not .def_57))) (let ((.def_59 (not A8))) (let ((.def_60 (not A0))) (let ((.def_61 (and .def_60 .def_59))) (let ((.def_62 (not .def_61))) (let ((.def_63 (and .def_62 .def_58))) (let ((.def_64 (not .def_63))) (let ((.def_65 (and .def_64 .def_50))) (let ((.def_66 (not .def_65))) (let ((.def_67 (and .def_66 .def_37))) (let ((.def_68 (not .def_67))) (let ((.def_69 (<= x9 1.0))) (let ((.def_70 (<= 0.0 x9))) (let ((.def_71 (<= x8 1.0))) (let ((.def_72 (<= 0.0 x8))) (let ((.def_73 (<= x7 1.0))) (let ((.def_74 (<= 0.0 x7))) (let ((.def_75 (<= x6 1.0))) (let ((.def_76 (<= 0.0 x6))) (let ((.def_77 (<= x5 1.0))) (let ((.def_78 (<= 0.0 x5))) (let ((.def_79 (<= x4 1.0))) (let ((.def_80 (<= 0.0 x4))) (let ((.def_81 (<= x3 1.0))) (let ((.def_82 (<= 0.0 x3))) (let ((.def_83 (<= x2 1.0))) (let ((.def_84 (<= 0.0 x2))) (let ((.def_85 (<= x1 1.0))) (let ((.def_86 (<= 0.0 x1))) (let ((.def_87 (<= x0 1.0))) (let ((.def_88 (<= 0.0 x0))) (let ((.def_89 (and .def_88 .def_87 .def_86 .def_85 .def_84 .def_83 .def_82 .def_81 .def_80 .def_79 .def_78 .def_77 .def_76 .def_75 .def_74 .def_73 .def_72 .def_71 .def_70 .def_69 .def_68))) .def_89)))))))))))))))))))))))))))))))))))))))))))))))))))))))))))))))))))))))))))))))))))))))))))
(check-sat)
